NAME:14850
COMMENT: From "On the generation of Metric TSP instances with a large integrality gap by branch-and-cut" (Vercesi, Gualandi, Mastrolilli, Gambardella) - https://arxiv.org/abs/2109.02454
TYPE: TSP
DIMENSION: 14
EDGE_WEIGHT_TYPE: EXPLICIT
EDGE_WEIGHT_FORMAT: UPPER_ROW
EDGE_WEIGHT_SECTION
195 28 194 84 111 222 56 28 85 56 167 138 140 222 222 168 194 83 140 167 277 194 83 224 222 222 112 139 250 84 56 111 28 139 166 112 111 84 139 139 166 112 250 305 56 167 27 138 28 56 168 140 251 113 223 111 55 83 195 167 277 139 250 166 194 251 277 166 195 305 28 141 112 223 85 195 113 84 195 110 167 139 194 56 55 111 194 84 250 139 111 
EOF